% seed = 4262848

mint = 52;
% maxt = 122;

nActs = 22;
dur = [0,4,2,9,9,10,9,10,6,6,5,5,3,2,8,2,1,10,7,4,10,0];

nSkills = 4;
sreq = [| 0,0,0,0,
	| 2,0,3,0,
	| 3,3,1,1,
	| 2,2,0,0,
	| 3,2,0,2,
	| 1,2,1,2,
	| 3,0,1,3,
	| 0,0,3,3,
	| 2,1,0,2,
	| 3,3,0,0,
	| 1,1,2,2,
	| 2,1,2,0,
	| 3,3,1,3,
	| 2,2,2,2,
	| 1,3,2,0,
	| 0,3,1,2,
	| 0,0,1,1,
	| 3,0,3,0,
	| 0,0,3,3,
	| 0,3,0,1,
	| 2,3,0,2,
	| 0,0,0,0, |];

nResources = 25;
mastery = [| true,false,true,true,
	| false,false,false,true,
	| true,false,true,true,
	| true,false,true,true,
	| true,true,true,false,
	| false,false,false,true,
	| false,false,true,true,
	| false,false,false,true,
	| false,true,false,true,
	| false,true,false,false,
	| true,false,false,false,
	| true,false,false,false,
	| false,true,false,true,
	| true,true,true,false,
	| false,true,false,true,
	| false,true,true,false,
	| false,true,true,false,
	| false,false,true,false,
	| true,false,true,false,
	| true,true,true,false,
	| false,false,true,false,
	| true,false,false,true,
	| false,true,false,false,
	| true,true,true,false,
	| true,false,true,false, |];

nPrecs = 31;
pred = [1,1,1,2,3,3,4,4,4,5,6,7,7,8,8,9,9,10,10,10,11,12,13,14,15,16,17,18,19,20,21];
succ = [2,3,4,12,10,6,17,5,7,8,18,21,14,9,11,13,14,21,13,15,19,18,19,16,20,18,19,20,22,22,22];

nUnrels = 119;
unpred = [2,2,2,2,2,2,2,2,2,2,2,2,2,2,2,2,3,3,3,3,3,3,3,3,3,3,4,4,4,4,5,5,5,5,5,5,5,6,6,6,6,6,6,6,6,6,6,6,6,6,7,7,7,7,7,7,7,7,7,8,8,8,8,8,9,9,9,9,9,9,10,10,10,10,10,10,11,11,11,11,11,11,11,11,11,12,12,12,12,12,12,12,13,13,13,13,13,13,13,14,14,14,14,15,15,15,15,15,16,16,16,17,17,17,18,18,19,19,20];
unsucc = [3,4,5,6,7,8,9,10,11,13,14,15,16,17,19,21,4,5,7,8,9,11,12,14,16,17,6,10,12,15,6,7,10,12,15,17,21,7,8,9,10,11,12,13,14,15,16,17,19,21,8,9,10,11,12,13,15,17,19,10,12,15,17,21,10,11,12,15,17,21,11,12,14,16,17,18,12,13,14,15,16,17,18,20,21,13,14,15,16,17,19,21,14,15,16,17,18,20,21,15,17,19,21,16,17,18,19,21,17,19,21,18,20,21,19,21,20,21,21];

USEFUL_RES = [{},
	{1,3,4,5,7,11,12,14,16,17,18,19,20,21,22,24,25},
	{1,2,3,4,5,6,7,8,9,10,11,12,13,14,15,16,17,18,19,20,21,22,23,24,25},
	{1,3,4,5,9,10,11,12,13,14,15,16,17,19,20,22,23,24,25},
	{1,2,3,4,5,6,7,8,9,10,11,12,13,14,15,16,17,19,20,22,23,24,25},
	{1,2,3,4,5,6,7,8,9,10,11,12,13,14,15,16,17,18,19,20,21,22,23,24,25},
	{1,2,3,4,5,6,7,8,9,11,12,13,14,15,16,17,18,19,20,21,22,24,25},
	{1,2,3,4,5,6,7,8,9,13,14,15,16,17,18,19,20,21,22,24,25},
	{1,2,3,4,5,6,7,8,9,10,11,12,13,14,15,16,17,19,20,22,23,24,25},
	{1,3,4,5,9,10,11,12,13,14,15,16,17,19,20,22,23,24,25},
	{1,2,3,4,5,6,7,8,9,10,11,12,13,14,15,16,17,18,19,20,21,22,23,24,25},
	{1,3,4,5,7,9,10,11,12,13,14,15,16,17,18,19,20,21,22,23,24,25},
	{1,2,3,4,5,6,7,8,9,10,11,12,13,14,15,16,17,18,19,20,21,22,23,24,25},
	{1,2,3,4,5,6,7,8,9,10,11,12,13,14,15,16,17,18,19,20,21,22,23,24,25},
	{1,3,4,5,7,9,10,11,12,13,14,15,16,17,18,19,20,21,22,23,24,25},
	{1,2,3,4,5,6,7,8,9,10,13,14,15,16,17,18,19,20,21,22,23,24,25},
	{1,2,3,4,5,6,7,8,9,13,14,15,16,17,18,19,20,21,22,24,25},
	{1,3,4,5,7,11,12,14,16,17,18,19,20,21,22,24,25},
	{1,2,3,4,5,6,7,8,9,13,14,15,16,17,18,19,20,21,22,24,25},
	{1,2,3,4,5,6,7,8,9,10,13,14,15,16,17,20,22,23,24},
	{1,2,3,4,5,6,7,8,9,10,11,12,13,14,15,16,17,19,20,22,23,24,25},
	{}];

POTENTIAL_ACT = [{2,3,4,5,6,7,8,9,10,11,12,13,14,15,16,17,18,19,20,21},
	{3,5,6,7,8,9,11,13,14,16,17,19,20,21},
	{2,3,4,5,6,7,8,9,10,11,12,13,14,15,16,17,18,19,20,21},
	{2,3,4,5,6,7,8,9,10,11,12,13,14,15,16,17,18,19,20,21},
	{2,3,4,5,6,7,8,9,10,11,12,13,14,15,16,17,18,19,20,21},
	{3,5,6,7,8,9,11,13,14,16,17,19,20,21},
	{2,3,5,6,7,8,9,11,12,13,14,15,16,17,18,19,20,21},
	{3,5,6,7,8,9,11,13,14,16,17,19,20,21},
	{3,4,5,6,7,8,9,10,11,12,13,14,15,16,17,19,20,21},
	{3,4,5,6,9,10,11,12,13,14,15,16,20,21},
	{2,3,4,5,6,7,9,10,11,12,13,14,15,18,21},
	{2,3,4,5,6,7,9,10,11,12,13,14,15,18,21},
	{3,4,5,6,7,8,9,10,11,12,13,14,15,16,17,19,20,21},
	{2,3,4,5,6,7,8,9,10,11,12,13,14,15,16,17,18,19,20,21},
	{3,4,5,6,7,8,9,10,11,12,13,14,15,16,17,19,20,21},
	{2,3,4,5,6,7,8,9,10,11,12,13,14,15,16,17,18,19,20,21},
	{2,3,4,5,6,7,8,9,10,11,12,13,14,15,16,17,18,19,20,21},
	{2,3,6,7,8,11,12,13,14,15,16,17,18,19},
	{2,3,4,5,6,7,8,9,10,11,12,13,14,15,16,17,18,19,21},
	{2,3,4,5,6,7,8,9,10,11,12,13,14,15,16,17,18,19,20,21},
	{2,3,6,7,8,11,12,13,14,15,16,17,18,19},
	{2,3,4,5,6,7,8,9,10,11,12,13,14,15,16,17,18,19,20,21},
	{3,4,5,6,9,10,11,12,13,14,15,16,20,21},
	{2,3,4,5,6,7,8,9,10,11,12,13,14,15,16,17,18,19,20,21},
	{2,3,4,5,6,7,8,9,10,11,12,13,14,15,16,17,18,19,21}];
